proyfinal/src/viki/013/andrea/andrea-localstore/experimentInOfficeAgust.take6/worker_3/ad094241-72a6-4518-85cf-67b73fede472.als.cnf.out
Reading from standard input... Use '--help' for help.
============================[ Problem Statistics ]=============================
|                                                                             |
|  Number of variables:         87638                                         |
|  Number of clauses:          161767                                         |
|  Parse time:                   0.04 s                                       |
|                                                                             |
============================[ Search Statistics ]==============================
| Conflicts |          ORIGINAL         |          LEARNT          | Progress |
|           |    Vars  Clauses Literals |    Limit  Clauses Lit/Cl |          |
===============================================================================
|       100 |   62771   106589   266284 |    39082      100      9 | 28.375 % |
|       250 |   62550   105791   264392 |    42990      239     13 | 28.627 % |
|       475 |   62550   105707   264199 |    47289      463     41 | 28.627 % |
|       812 |   62549   105663   264109 |    52018      799     45 | 28.628 % |
|      1318 |   62501   105583   263923 |    57220     1300     74 | 28.683 % |
|      2077 |   62457   105320   263223 |    62942     1948     85 | 28.733 % |
|      3216 |   62432   105218   262989 |    69237     3085     93 | 28.761 % |
|      4924 |   50791    70730   177770 |    76160     4575    112 | 42.045 % |
|      7486 |   50614    70017   176108 |    83777     6547     95 | 42.247 % |
|     11330 |   50272    68494   172467 |    92154    10329     77 | 42.637 % |
===============================================================================
restarts              : 61
conflicts             : 13758          (8403 /sec)
decisions             : 48274          (0.00 % random) (29484 /sec)
propagations          : 16816518       (10271066 /sec)
conflict literals     : 922245         (41.68 % deleted)
Memory used           : 31.05 MB
CPU time              : 1.63727 s

UNSATISFIABLE
